networks/zoo_32_42/zoo_32_42.sol
<?xml version = "1.0" encoding="UTF-8" standalone="yes"?>
<CPLEXSolution version="1.2">
 <header
   problemName="networks/zoo_32_42/zoo_32_42.lp"
   solutionName="incumbent"
   solutionIndex="-1"
   objectiveValue="14"
   solutionTypeValue="3"
   solutionTypeString="primal"
   solutionStatusValue="101"
   solutionStatusString="integer optimal solution"
   solutionMethodString="mip"
   primalFeasible="1"
   dualFeasible="1"
   MIPNodes="0"
   MIPIterations="202"
   writeLevel="3"/>
 <quality
   epInt="1.0000000000000001e-05"
   epRHS="9.9999999999999995e-07"
   maxIntInfeas="0"
   maxPrimalInfeas="0"
   maxX="3"
   maxSlack="9"/>
 <variables>
  <variable name="Y(1,10)" index="8" value="1"/>
  <variable name="Y(3,14)" index="60" value="1"/>
  <variable name="Y(7,15)" index="157" value="1"/>
  <variable name="Y(8,7)" index="173" value="1"/>
  <variable name="Y(9,8)" index="198" value="1"/>
  <variable name="Y(11,2)" index="241" value="1"/>
  <variable name="Y(13,5)" index="292" value="1"/>
  <variable name="Y(17,13)" index="395" value="1"/>
  <variable name="Y(25,12)" index="586" value="1"/>
  <variable name="Y(28,4)" index="651" value="1"/>
  <variable name="Y(28,12)" index="658" value="1"/>
  <variable name="Y(35,7)" index="821" value="1"/>
  <variable name="Y(36,9)" index="847" value="1"/>
  <variable name="Y(38,11)" index="897" value="1"/>
  <variable name="X(1,15,1)" index="1008" value="1"/>
  <variable name="X(2,14,3)" index="1052" value="1"/>
  <variable name="X(2,19,11)" index="1102" value="1"/>
  <variable name="X(3,14,7)" index="1140" value="1"/>
  <variable name="X(4,21,28)" index="1203" value="1"/>
  <variable name="X(5,22,13)" index="1230" value="1"/>
  <variable name="X(7,12,8)" index="1267" value="1"/>
  <variable name="X(7,24,35)" index="1336" value="1"/>
  <variable name="X(8,14,9)" index="1352" value="1"/>
  <variable name="X(9,26,36)" index="1421" value="1"/>
  <variable name="X(10,5,13)" index="1440" value="1"/>
  <variable name="X(10,14,11)" index="1480" value="1"/>
  <variable name="X(10,27,1)" index="1512" value="1"/>
  <variable name="X(11,28,38)" index="1591" value="1"/>
  <variable name="X(12,7,35)" index="1630" value="1"/>
  <variable name="X(12,11,25)" index="1662" value="1"/>
  <variable name="X(12,13,17)" index="1696" value="1"/>
  <variable name="X(12,14,28)" index="1749" value="1"/>
  <variable name="X(13,12,28)" index="1791" value="1"/>
  <variable name="X(13,30,17)" index="1822" value="1"/>
  <variable name="X(14,2,11)" index="1858" value="1"/>
  <variable name="X(14,9,36)" index="1925" value="1"/>
  <variable name="X(14,10,1)" index="1932" value="1"/>
  <variable name="X(14,11,38)" index="2011" value="1"/>
  <variable name="X(14,12,35)" index="2050" value="1"/>
  <variable name="X(14,15,7)" index="2064" value="1"/>
  <variable name="X(14,31,3)" index="2102" value="1"/>
  <variable name="X(15,4,28)" index="2169" value="1"/>
  <variable name="X(15,14,1)" index="2184" value="1"/>
  <variable name="X(15,32,7)" index="2232" value="1"/>
  <variable name="C(1,15)" index="2269" value="1"/>
  <variable name="C(1,14)" index="2270" value="2"/>
  <variable name="C(1,10)" index="2271" value="3"/>
  <variable name="C(3,14)" index="2276" value="1"/>
  <variable name="C(7,14)" index="2286" value="1"/>
  <variable name="C(7,15)" index="2287" value="2"/>
  <variable name="C(11,14)" index="2298" value="1"/>
  <variable name="C(11,2)" index="2299" value="2"/>
  <variable name="C(13,5)" index="2305" value="1"/>
  <variable name="C(17,13)" index="2319" value="1"/>
  <variable name="C(28,12)" index="2350" value="1"/>
  <variable name="C(28,4)" index="2353" value="1"/>
  <variable name="C(35,12)" index="2374" value="1"/>
  <variable name="C(35,7)" index="2375" value="2"/>
  <variable name="C(36,9)" index="2377" value="1"/>
  <variable name="C(38,11)" index="2381" value="1"/>
 </variables>
</CPLEXSolution>
